(set-logic LIA)
(synth-fun inv ((distance Int) (throttle Int) ) Bool)

(declare-var distance Int)
(declare-var throttle Int)


(constraint (= (inv distance throttle) (and (= 1 throttle) (not (>= distance throttle)))))

(check-synth)